5 6 78
3 4 1 4 2 3 3 26 42 42 58 62 77 
3 1 1 1 2 1 3 30 39 39 55 55 65 
5 2 1 3 1 3 2 5 1 5 2 10 28 28 40 40 47 54 64 64 78 
2 2 2 2 3 44 52 52 69 
6 3 1 4 1 4 1 5 1 5 1 3 3 0 10 10 22 22 26 26 44 44 54 54 62 
5 2 1 1 1 1 1 2 2 2 2 0 10 10 22 22 30 30 38 38 44 
